(set-info :source |printed by MathSAT|)
(declare-fun call__main_.call_controleur.avance () Bool)
(declare-fun call__main_.flby3 () Int)
(declare-fun call__main_.nB1 () Int)
(declare-fun call__main_.call_hypothese2.ok () Bool)
(declare-fun call__main_.call_controleur2.avance () Bool)
(declare-fun call__main_.nB0 () Int)
(declare-fun call__main_._H1_ () Bool)
(declare-fun ast () Bool)
(declare-fun nB1 () Int)
(declare-fun call__main_.call_controleur2.flby2 () Bool)
(declare-fun call__main_.diff1 () Int)
(declare-fun nS () Int)
(declare-fun call__main_.call_controleur2.retard () Bool)
(declare-fun call__main_.ast () Bool)
(declare-fun call__main_.avance1 () Bool)
(declare-fun avance0 () Bool)
(declare-fun call__main_.call_controleur2.diff () Int)
(declare-fun call__main_.call_controleur.retard () Bool)
(declare-fun flby () Bool)
(declare-fun call__main_.call_hypothese2.c () Int)
(declare-fun call__main_.call_controleur.diff () Int)
(declare-fun call__main_.flby () Int)
(declare-fun call__main_.flby2 () Int)
(declare-fun call_Sofar.Sofar () Bool)
(declare-fun call__main_.call_hypothese.flby () Bool)
(declare-fun call__main_.diff0 () Int)
(declare-fun call__main_.call_hypothese2.flby () Bool)
(declare-fun call__main_.nS () Int)
(declare-fun retard1 () Bool)
(declare-fun call__main_.retard0 () Bool)
(declare-fun call_Sofar.flby () Bool)
(declare-fun _OK_ () Bool)
(declare-fun call__main_._H0_ () Bool)
(declare-fun call__main_.call_controleur.flby () Bool)
(declare-fun call__main_.call_hypothese.ok () Bool)
(declare-fun call__main_.call_hypothese2.flby2 () Int)
(declare-fun call__main_.avance0 () Bool)
(declare-fun call__main_.call_hypothese.c () Int)
(declare-fun retard0 () Bool)
(declare-fun call__main_.call_controleur.flby2 () Bool)
(declare-fun diff0 () Int)
(declare-fun call__main_.call_controleur2.flby () Bool)
(declare-fun diff1 () Int)
(declare-fun call__main_.retard1 () Bool)
(declare-fun avance1 () Bool)
(declare-fun nB0 () Int)
(declare-fun call__main_.call_hypothese.flby2 () Int)
(define-fun .def_628 () Bool (= call_Sofar.flby call_Sofar.Sofar))
(define-fun .def_625 () Bool (= call__main_.call_controleur2.flby2 call__main_.call_controleur2.retard))
(define-fun .def_623 () Bool (= call__main_.call_controleur2.flby call__main_.call_controleur2.avance))
(define-fun .def_618 () Int (* (- 1) call__main_.call_controleur2.diff))
(define-fun .def_606 () Int (* (- 1) call__main_.nS))
(define-fun .def_619 () Int (+ .def_606 .def_618))
(define-fun .def_620 () Int (+ call__main_.nB1 .def_619))
(define-fun .def_621 () Bool (= .def_620 0))
(define-fun .def_613 () Bool (= call__main_.call_controleur.flby2 call__main_.call_controleur.retard))
(define-fun .def_611 () Bool (= call__main_.call_controleur.flby call__main_.call_controleur.avance))
(define-fun .def_605 () Int (* (- 1) call__main_.call_controleur.diff))
(define-fun .def_607 () Int (+ .def_606 .def_605))
(define-fun .def_608 () Int (+ call__main_.nB0 .def_607))
(define-fun .def_609 () Bool (= .def_608 0))
(define-fun .def_600 () Bool (= call__main_.call_hypothese2.flby2 call__main_.call_hypothese2.c))
(define-fun .def_597 () Bool (= call__main_.call_hypothese2.flby call__main_.call_hypothese2.ok))
(define-fun .def_595 () Bool (= call__main_.call_hypothese.flby2 call__main_.call_hypothese.c))
(define-fun .def_592 () Bool (= call__main_.call_hypothese.flby call__main_.call_hypothese.ok))
(define-fun .def_590 () Bool (= call__main_._H1_ call__main_.call_hypothese2.ok))
(define-fun .def_587 () Bool (= call__main_._H0_ call__main_.call_hypothese.ok))
(define-fun .def_584 () Bool (= call__main_.retard1 call__main_.call_controleur2.retard))
(define-fun .def_581 () Bool (= call__main_.retard0 call__main_.call_controleur.retard))
(define-fun .def_578 () Bool (= call__main_.avance1 call__main_.call_controleur2.avance))
(define-fun .def_575 () Bool (= call__main_.avance0 call__main_.call_controleur.avance))
(define-fun .def_572 () Bool (= call__main_.diff1 call__main_.call_controleur2.diff))
(define-fun .def_569 () Bool (= call__main_.diff0 call__main_.call_controleur.diff))
(define-fun .def_566 () Bool (= call__main_.flby3 call__main_.nS))
(define-fun .def_564 () Bool (= call__main_.flby2 call__main_.nB1))
(define-fun .def_562 () Bool (= call__main_.flby call__main_.nB0))
(define-fun .def_559 () Bool (and call__main_._H0_ call__main_._H1_))
(define-fun .def_560 () Bool (= call__main_.ast .def_559))
(define-fun .def_555 () Bool (= ast call__main_.ast))
(define-fun .def_552 () Bool (= retard1 call__main_.retard1))
(define-fun .def_548 () Bool (= retard0 call__main_.retard0))
(define-fun .def_544 () Bool (= avance1 call__main_.avance1))
(define-fun .def_540 () Bool (= avance0 call__main_.avance0))
(define-fun .def_536 () Bool (= diff1 call__main_.diff1))
(define-fun .def_532 () Bool (= diff0 call__main_.diff0))
(define-fun .def_528 () Bool (= nS call__main_.nS))
(define-fun .def_524 () Bool (= nB1 call__main_.nB1))
(define-fun .def_520 () Bool (= nB0 call__main_.nB0))
(define-fun .def_517 () Bool (= flby _OK_))
(define-fun .def_521 () Bool (and .def_517 .def_520))
(define-fun .def_525 () Bool (and .def_521 .def_524))
(define-fun .def_529 () Bool (and .def_525 .def_528))
(define-fun .def_533 () Bool (and .def_529 .def_532))
(define-fun .def_537 () Bool (and .def_533 .def_536))
(define-fun .def_541 () Bool (and .def_537 .def_540))
(define-fun .def_545 () Bool (and .def_541 .def_544))
(define-fun .def_549 () Bool (and .def_545 .def_548))
(define-fun .def_553 () Bool (and .def_549 .def_552))
(define-fun .def_556 () Bool (and .def_553 .def_555))
(define-fun .def_561 () Bool (and .def_556 .def_560))
(define-fun .def_563 () Bool (and .def_561 .def_562))
(define-fun .def_565 () Bool (and .def_563 .def_564))
(define-fun .def_567 () Bool (and .def_565 .def_566))
(define-fun .def_570 () Bool (and .def_567 .def_569))
(define-fun .def_573 () Bool (and .def_570 .def_572))
(define-fun .def_576 () Bool (and .def_573 .def_575))
(define-fun .def_579 () Bool (and .def_576 .def_578))
(define-fun .def_582 () Bool (and .def_579 .def_581))
(define-fun .def_585 () Bool (and .def_582 .def_584))
(define-fun .def_588 () Bool (and .def_585 .def_587))
(define-fun .def_591 () Bool (and .def_588 .def_590))
(define-fun .def_593 () Bool (and .def_591 .def_592))
(define-fun .def_596 () Bool (and .def_593 .def_595))
(define-fun .def_598 () Bool (and .def_596 .def_597))
(define-fun .def_601 () Bool (and .def_598 .def_600))
(define-fun .def_610 () Bool (and .def_601 .def_609))
(define-fun .def_612 () Bool (and .def_610 .def_611))
(define-fun .def_614 () Bool (and .def_612 .def_613))
(define-fun .def_622 () Bool (and .def_614 .def_621))
(define-fun .def_624 () Bool (and .def_622 .def_623))
(define-fun .def_626 () Bool (and .def_624 .def_625))
(define-fun .def_629 () Bool (and .def_626 .def_628))
(define-fun .def_514 () Bool (= ast call_Sofar.flby))
(define-fun .def_510 () Bool (not call__main_.call_controleur2.flby2))
(define-fun .def_507 () Bool (not call__main_.call_controleur2.flby))
(define-fun .def_504 () Bool (not call__main_.call_controleur.flby2))
(define-fun .def_501 () Bool (not call__main_.call_controleur.flby))
(define-fun .def_498 () Bool (= call__main_.call_hypothese2.flby2 0))
(define-fun .def_493 () Bool (= call__main_.call_hypothese.flby2 0))
(define-fun .def_488 () Bool (= call__main_.flby3 0))
(define-fun .def_485 () Bool (= call__main_.flby2 0))
(define-fun .def_481 () Bool (= call__main_.flby 0))
(define-fun .def_483 () Bool (and .def_481 flby))
(define-fun .def_486 () Bool (and .def_483 .def_485))
(define-fun .def_489 () Bool (and .def_486 .def_488))
(define-fun .def_491 () Bool (and .def_489 call__main_.call_hypothese.flby))
(define-fun .def_494 () Bool (and .def_491 .def_493))
(define-fun .def_496 () Bool (and .def_494 call__main_.call_hypothese2.flby))
(define-fun .def_499 () Bool (and .def_496 .def_498))
(define-fun .def_502 () Bool (and .def_499 .def_501))
(define-fun .def_505 () Bool (and .def_502 .def_504))
(define-fun .def_508 () Bool (and .def_505 .def_507))
(define-fun .def_511 () Bool (and .def_508 .def_510))
(define-fun .def_515 () Bool (and .def_511 .def_514))
(define-fun .def_630 () Bool (and .def_515 .def_629))
(assert .def_630)
